Name:		mgval_0.45_1A
Optimal value:	168
#Vehicles:	2
Capacity:	200
Depot Node:	1
#Nodes:		24
#Edges:		20
#Arcs:		35
#Required N:	17
#Required E:	11
#Required A:	19

ReN.	DEMAND	S. COST
N2	7	7
N3	2	2
N4	3	3
N5	10	10
N6	6	6
N7	14	14
N8	4	4
N9	16	16
N10	5	5
N11	7	7
N14	8	8
N16	4	4
N17	4	4
N19	20	20
N21	13	13
N22	11	11
N23	9	9

ReE.	FROM N.	TO N.	T. COST	DEMAND	S. COST
E10	19	20	5	14	14
E11	13	17	2	3	3
E12	5	6	10	19	19
E13	6	7	3	12	12
E14	13	14	5	10	10
E15	1	11	7	12	12
E16	15	21	6	14	14
E17	20	21	3	12	12
E18	3	4	5	14	14
E19	6	11	7	18	18
E20	15	16	2	4	4

EDGE	FROM N.	TO N.	T. COST
NrE1	1	9	3
NrE2	23	24	2
NrE3	14	18	3
NrE4	17	18	2
NrE5	1	19	4
NrE6	4	5	4
NrE7	16	17	1
NrE8	21	24	4
NrE9	7	8	4

ReA.	FROM N.	TO N.	T. COST	DEMAND	S. COST
A17	15	20	3	8	8
A18	4	2	1	1	1
A19	16	12	3	3	3
A20	1	5	3	2	2
A21	20	1	5	7	7
A22	12	17	4	3	3
A23	1	20	5	6	6
A24	13	7	4	3	3
A25	5	1	3	2	2
A26	17	12	4	4	4
A27	12	6	4	7	7
A28	3	10	3	7	7
A29	14	8	4	5	5
A30	9	3	2	2	2
A31	23	21	5	6	6
A32	12	16	3	2	2
A33	19	22	5	6	6
A34	21	23	5	6	6
A35	12	11	2	3	3

ARC	FROM N.	TO N.	T. COST
NrA1	2	4	1
NrA2	11	5	4
NrA3	2	5	3
NrA4	10	2	2
NrA5	23	22	2
NrA6	22	23	2
NrA7	22	19	5
NrA8	11	12	2
NrA9	3	9	2
NrA10	5	11	4
NrA11	5	2	3
NrA12	19	9	5
NrA13	6	12	4
NrA14	9	19	5
NrA15	8	14	4
NrA16	7	13	4
Name:		mgval_0.45_1A
Optimal value:	261
#Vehicles:	3
Capacity:	200
Depot Node:	1
#Nodes:		40
#Edges:		36
#Arcs:		50
#Required N:	27
#Required E:	19
#Required A:	27

ReN.	DEMAND	S. COST
N2	23	23
N4	2	2
N6	8	8
N7	3	3
N8	14	14
N9	16	16
N10	4	4
N11	14	14
N12	8	8
N13	12	12
N15	5	5
N17	8	8
N19	12	12
N20	14	14
N21	6	6
N23	7	7
N25	3	3
N26	4	4
N27	13	13
N30	5	5
N31	12	12
N33	8	8
N34	16	16
N35	7	7
N36	6	6
N37	7	7
N38	9	9

ReE.	FROM N.	TO N.	T. COST	DEMAND	S. COST
E18	6	7	4	7	7
E19	27	28	3	11	11
E20	20	21	2	3	3
E21	15	16	3	8	8
E22	14	15	4	7	7
E23	29	30	3	12	12
E24	26	33	5	14	14
E25	31	32	5	12	12
E26	28	35	10	15	15
E27	3	4	2	5	5
E28	5	39	2	6	6
E29	1	10	8	12	12
E30	38	39	7	9	9
E31	1	40	4	10	10
E32	18	22	6	13	13
E33	29	36	4	9	9
E34	21	22	1	4	4
E35	3	37	4	6	6
E36	1	33	4	9	9

EDGE	FROM N.	TO N.	T. COST
NrE1	11	16	3
NrE2	17	18	5
NrE3	12	17	4
NrE4	9	10	2
NrE5	23	24	2
NrE6	13	18	2
NrE7	27	34	3
NrE8	21	24	3
NrE9	31	37	5
NrE10	7	13	1
NrE11	20	23	3
NrE12	8	40	5
NrE13	2	6	2
NrE14	2	36	3
NrE15	33	34	3
NrE16	1	2	2
NrE17	34	35	6

ReA.	FROM N.	TO N.	T. COST	DEMAND	S. COST
A24	36	35	6	7	7
A25	24	25	2	2	2
A26	8	14	7	10	10
A27	31	38	4	4	4
A28	32	39	2	8	8
A29	25	22	1	2	2
A30	17	20	6	6	6
A31	17	13	2	3	3
A32	38	4	3	2	2
A33	1	35	4	6	6
A34	1	8	4	9	9
A35	16	10	4	4	4
A36	1	11	3	12	12
A37	3	2	5	5	5
A38	26	34	5	8	8
A39	12	11	7	5	5
A40	18	19	4	14	14
A41	30	37	3	5	5
A42	12	13	6	4	4
A43	12	6	2	2	2
A44	5	4	3	4	4
A45	6	12	2	2	2
A46	35	1	4	6	6
A47	3	7	2	3	3
A48	4	5	3	3	3
A49	2	3	5	4	4
A50	22	25	1	1	1

ARC	FROM N.	TO N.	T. COST
NrA1	36	37	4
NrA2	8	9	5
NrA3	9	15	2
NrA4	25	24	2
NrA5	31	30	3
NrA6	1	6	3
NrA7	38	37	2
NrA8	9	8	5
NrA9	26	27	4
NrA10	15	9	2
NrA11	13	17	2
NrA12	38	31	4
NrA13	10	16	4
NrA14	35	36	6
NrA15	11	12	7
NrA16	30	31	3
NrA17	27	26	4
NrA18	34	26	5
NrA19	37	36	4
NrA20	20	17	6
NrA21	19	13	6
NrA22	4	38	3
NrA23	13	12	6
